; benchmark generated from python API
(set-info :status unknown)
(declare-fun syscall_stub_newfstatat_83_64 () (_ BitVec 64))
(declare-fun mem_c0000f45_79_992 () (_ BitVec 992))
(declare-fun mem_c0001010_98_32 () (_ BitVec 32))
(declare-fun mem_c0001028_107_64 () (_ BitVec 64))
(declare-fun mem_c0000ff0_235_64 () (_ BitVec 64))
(declare-fun mem_8000000000000018_274_64 () (_ BitVec 64))
(declare-fun mem_8000000000000020_271_64 () (_ BitVec 64))
(declare-fun mem_8000000000000030_272_64 () (_ BitVec 64))
(declare-fun mem_8000000000000038_273_64 () (_ BitVec 64))
(declare-fun mem_8000000000000008_316_64 () (_ BitVec 64))
(assert
 (let ((?x47 ((_ extract 31 0) syscall_stub_newfstatat_83_64)))
 (let (($x52 (bvule ?x47 (_ bv4294963200 32))))
 (not $x52))))
(assert
 (let ((?x2189 ((_ extract 900 900) mem_c0000f45_79_992)))
 (= (_ bv0 1) ?x2189)))
(assert
 (let ((?x3699 ((_ extract 891 891) mem_c0000f45_79_992)))
 (let (($x4297 (= (_ bv0 1) ?x3699)))
 (not $x4297))))
(assert
 (let ((?x644 ((_ extract 647 640) mem_c0000f45_79_992)))
 (let ((?x3676 ((_ extract 639 632) mem_c0000f45_79_992)))
 (let ((?x4549 ((_ extract 631 624) mem_c0000f45_79_992)))
 (let ((?x636 ((_ extract 623 616) mem_c0000f45_79_992)))
 (let ((?x672 ((_ extract 615 608) mem_c0000f45_79_992)))
 (let ((?x784 ((_ extract 607 600) mem_c0000f45_79_992)))
 (let ((?x18745 (concat (concat ((_ extract 591 584) mem_c0000f45_79_992) ((_ extract 599 592) mem_c0000f45_79_992)) ?x784)))
 (let ((?x23636 (concat (concat (concat (concat (concat ?x18745 ?x672) ?x636) ?x4549) ?x3676) ?x644)))
 (let ((?x3977 ((_ extract 583 576) mem_c0000f45_79_992)))
 (let ((?x935 ((_ extract 575 568) mem_c0000f45_79_992)))
 (let ((?x4611 ((_ extract 567 560) mem_c0000f45_79_992)))
 (let ((?x3400 ((_ extract 559 552) mem_c0000f45_79_992)))
 (let ((?x3784 ((_ extract 551 544) mem_c0000f45_79_992)))
 (let ((?x3913 ((_ extract 543 536) mem_c0000f45_79_992)))
 (let ((?x12701 (concat (concat ((_ extract 527 520) mem_c0000f45_79_992) ((_ extract 535 528) mem_c0000f45_79_992)) ?x3913)))
 (let ((?x13066 (concat (concat (concat (concat (concat ?x12701 ?x3784) ?x3400) ?x4611) ?x935) ?x3977)))
 (bvule ?x13066 ?x23636))))))))))))))))))
(assert
 (let ((?x8705 ((_ extract 888 888) mem_c0000f45_79_992)))
 (= (_ bv0 1) ?x8705)))
(assert
 (let ((?x2427 ((_ extract 775 768) mem_c0000f45_79_992)))
 (let ((?x2419 ((_ extract 767 760) mem_c0000f45_79_992)))
 (let ((?x2429 ((_ extract 759 752) mem_c0000f45_79_992)))
 (let ((?x2417 ((_ extract 751 744) mem_c0000f45_79_992)))
 (let ((?x2410 ((_ extract 743 736) mem_c0000f45_79_992)))
 (let ((?x2411 ((_ extract 735 728) mem_c0000f45_79_992)))
 (let ((?x4124 (concat (concat ((_ extract 719 712) mem_c0000f45_79_992) ((_ extract 727 720) mem_c0000f45_79_992)) ?x2411)))
 (let ((?x3823 (concat (concat (concat (concat (concat ?x4124 ?x2410) ?x2417) ?x2429) ?x2419) ?x2427)))
 (let ((?x3977 ((_ extract 583 576) mem_c0000f45_79_992)))
 (let ((?x935 ((_ extract 575 568) mem_c0000f45_79_992)))
 (let ((?x4611 ((_ extract 567 560) mem_c0000f45_79_992)))
 (let ((?x3400 ((_ extract 559 552) mem_c0000f45_79_992)))
 (let ((?x3784 ((_ extract 551 544) mem_c0000f45_79_992)))
 (let ((?x3913 ((_ extract 543 536) mem_c0000f45_79_992)))
 (let ((?x12701 (concat (concat ((_ extract 527 520) mem_c0000f45_79_992) ((_ extract 535 528) mem_c0000f45_79_992)) ?x3913)))
 (let ((?x13066 (concat (concat (concat (concat (concat ?x12701 ?x3784) ?x3400) ?x4611) ?x935) ?x3977)))
 (let (($x13063 (bvule ?x13066 ?x3823)))
 (not $x13063)))))))))))))))))))
(assert
 (let ((?x11985 ((_ extract 135 128) mem_c0000f45_79_992)))
 (= (_ bv0 8) ?x11985)))
(assert
 (let ((?x14887 ((_ extract 327 320) mem_c0000f45_79_992)))
 (= (_ bv0 8) ?x14887)))
(assert
 (let ((?x13685 ((_ extract 127 120) mem_c0000f45_79_992)))
 (= (_ bv0 8) ?x13685)))
(assert
 (let ((?x13262 ((_ extract 119 112) mem_c0000f45_79_992)))
 (= (_ bv0 8) ?x13262)))
(assert
 (let ((?x13139 ((_ extract 111 104) mem_c0000f45_79_992)))
 (= (_ bv0 8) ?x13139)))
(assert
 (let ((?x12096 ((_ extract 103 96) mem_c0000f45_79_992)))
 (= (_ bv0 8) ?x12096)))
(assert
 (let ((?x12093 ((_ extract 95 88) mem_c0000f45_79_992)))
 (= (_ bv0 8) ?x12093)))
(assert
 (let ((?x12627 ((_ extract 87 80) mem_c0000f45_79_992)))
 (= (_ bv0 8) ?x12627)))
(assert
 (let ((?x12622 ((_ extract 79 72) mem_c0000f45_79_992)))
 (= (_ bv0 8) ?x12622)))
(assert
 (let ((?x14869 ((_ extract 319 312) mem_c0000f45_79_992)))
 (= (_ bv0 8) ?x14869)))
(assert
 (let ((?x14893 ((_ extract 311 304) mem_c0000f45_79_992)))
 (= (_ bv0 8) ?x14893)))
(assert
 (let ((?x14875 ((_ extract 303 296) mem_c0000f45_79_992)))
 (= (_ bv0 8) ?x14875)))
(assert
 (let ((?x14872 ((_ extract 295 288) mem_c0000f45_79_992)))
 (= (_ bv0 8) ?x14872)))
(assert
 (let ((?x14857 ((_ extract 287 280) mem_c0000f45_79_992)))
 (= (_ bv0 8) ?x14857)))
(assert
 (let ((?x14868 ((_ extract 279 272) mem_c0000f45_79_992)))
 (= (_ bv0 8) ?x14868)))
(assert
 (let ((?x14951 ((_ extract 271 264) mem_c0000f45_79_992)))
 (= (_ bv0 8) ?x14951)))
(assert
 (let ((?x99938 ((_ extract 899 899) mem_c0000f45_79_992)))
 (= (_ bv0 1) ?x99938)))
(assert
 (let ((?x139080 ((_ extract 890 890) mem_c0000f45_79_992)))
 (let (($x139075 (= (_ bv1 1) ?x139080)))
 (not $x139075))))
(assert
 (let ((?x2357 ((_ extract 815 808) mem_c0000f45_79_992)))
 (let ((?x2417 ((_ extract 751 744) mem_c0000f45_79_992)))
 (let (($x1690 (= ?x2417 ?x2357)))
 (let (($x3670 (not $x1690)))
 (let ((?x2362 ((_ extract 807 800) mem_c0000f45_79_992)))
 (let ((?x2410 ((_ extract 743 736) mem_c0000f45_79_992)))
 (let (($x1703 (= ?x2410 ?x2362)))
 (let (($x3664 (not $x1703)))
 (let ((?x2345 ((_ extract 783 776) mem_c0000f45_79_992)))
 (let ((?x2400 ((_ extract 719 712) mem_c0000f45_79_992)))
 (let (($x1701 (= ?x2400 ?x2345)))
 (let (($x3671 (not $x1701)))
 (let ((?x2363 ((_ extract 799 792) mem_c0000f45_79_992)))
 (let ((?x2411 ((_ extract 735 728) mem_c0000f45_79_992)))
 (let (($x1704 (= ?x2411 ?x2363)))
 (let (($x3672 (not $x1704)))
 (let ((?x2346 ((_ extract 791 784) mem_c0000f45_79_992)))
 (let ((?x2401 ((_ extract 727 720) mem_c0000f45_79_992)))
 (let (($x1693 (= ?x2401 ?x2346)))
 (let (($x4136 (not $x1693)))
 (let ((?x2364 ((_ extract 831 824) mem_c0000f45_79_992)))
 (let ((?x2419 ((_ extract 767 760) mem_c0000f45_79_992)))
 (let (($x1155 (= ?x2419 ?x2364)))
 (let (($x4137 (not $x1155)))
 (let ((?x2374 ((_ extract 839 832) mem_c0000f45_79_992)))
 (let ((?x2427 ((_ extract 775 768) mem_c0000f45_79_992)))
 (let (($x1152 (= ?x2427 ?x2374)))
 (let (($x4139 (not $x1152)))
 (let ((?x2349 ((_ extract 823 816) mem_c0000f45_79_992)))
 (let ((?x2429 ((_ extract 759 752) mem_c0000f45_79_992)))
 (let (($x1714 (= ?x2429 ?x2349)))
 (let (($x4539 (not $x1714)))
 (let (($x6038 (or $x4539 $x4139 $x4137 $x4136 $x3672 $x3671 $x3664 $x3670)))
 (let (($x9215 (not $x6038)))
 (let ((?x4533 (concat (concat (concat (concat (concat ?x2345 ?x2346) ?x2363) ?x2362) ?x2357) ?x2349)))
 (let ((?x4215 (concat ?x4533 ?x2364)))
 (let ((?x3812 (concat ?x4215 ?x2374)))
 (let ((?x3646 (bvmul (_ bv18446744073709551615 64) ?x3812)))
 (let ((?x3809 (concat (concat (concat (concat (concat ?x2400 ?x2401) ?x2411) ?x2410) ?x2417) ?x2429)))
 (let ((?x3823 (concat (concat ?x3809 ?x2419) ?x2427)))
 (let ((?x3827 (bvadd ?x3823 ?x3646)))
 (let ((?x2482 ((_ extract 63 63) ?x3827)))
 (let (($x2285 (= (_ bv1 1) ?x2482)))
 (or $x2285 $x9215)))))))))))))))))))))))))))))))))))))))))))))
(assert
 (let ((?x935 ((_ extract 575 568) mem_c0000f45_79_992)))
 (let (($x140958 (= (_ bv255 8) ?x935)))
 (let (($x795875 (not $x140958)))
 (let ((?x3977 ((_ extract 583 576) mem_c0000f45_79_992)))
 (let (($x140991 (= (_ bv255 8) ?x3977)))
 (let (($x795843 (not $x140991)))
 (let ((?x4611 ((_ extract 567 560) mem_c0000f45_79_992)))
 (let (($x146242 (= (_ bv255 8) ?x4611)))
 (let (($x796984 (not $x146242)))
 (let ((?x3400 ((_ extract 559 552) mem_c0000f45_79_992)))
 (let (($x140995 (= (_ bv255 8) ?x3400)))
 (let (($x833998 (not $x140995)))
 (or $x833998 $x796984 $x795843 $x795875))))))))))))))
(assert
 (= (_ bv0 32) mem_c0001010_98_32))
(assert
 (= (_ bv14774640 64) mem_c0001028_107_64))
(assert
 (= (_ bv9223372036854775808 64) mem_c0000ff0_235_64))
(assert
 (let ((?x291428 (bvmul (_ bv18446744073709551615 64) mem_8000000000000018_274_64)))
 (let ((?x292420 (bvadd mem_8000000000000020_271_64 ?x291428)))
 (let ((?x286410 (bvashr ?x292420 (_ bv2 64))))
 (let ((?x291078 (bvmul (_ bv18446744073709551615 64) mem_8000000000000030_272_64)))
 (let ((?x292764 (bvadd mem_8000000000000038_273_64 ?x291078)))
 (let ((?x292542 (bvashr ?x292764 (_ bv2 64))))
 (let (($x795841 (bvule ?x292542 ?x286410)))
 (not $x795841)))))))))
(assert
 (bvule mem_8000000000000020_271_64 (_ bv18446744073709551615 64)))
(assert
 (= (_ bv18446744073709551615 64) mem_8000000000000020_271_64))
(assert
 (let ((?x795850 (bvadd mem_8000000000000020_271_64 (_ bv4 64))))
 (bvule ?x795850 mem_8000000000000008_316_64)))
(minimize mem_c0000f45_79_992)
(maximize mem_8000000000000030_272_64)
(maximize mem_8000000000000038_273_64)
(minimize syscall_stub_newfstatat_83_64)
(maximize mem_c0000ff0_235_64)
(maximize syscall_stub_newfstatat_83_64)
(minimize mem_8000000000000020_271_64)
(minimize mem_c0001028_107_64)
(minimize mem_8000000000000008_316_64)
(minimize mem_8000000000000030_272_64)
(minimize mem_c0001010_98_32)
(minimize mem_8000000000000038_273_64)
(maximize mem_8000000000000018_274_64)
(maximize mem_c0000f45_79_992)
(minimize mem_c0000ff0_235_64)
(maximize mem_8000000000000008_316_64)
(maximize mem_c0001010_98_32)
(maximize mem_8000000000000020_271_64)
(maximize mem_c0001028_107_64)
(check-sat)
(get-objectives)
